p cnf 156 302               
-18 -17 -21 0
21 -27 0
-17 22 0
-18 22 0
17 18 -22 0
-22 -19 -23 0
23 -27 0
-19 24 0
-22 24 0
19 22 -24 0
-24 -20 -25 0
25 -27 0
20 24 -26 0
26 -27 0
27 -73 0
17 66 0
-13 66 0
-17 13 -66 0
66 -70 0
18 67 0
-14 67 0
-18 14 -67 0
67 -70 0
19 68 0
-15 68 0
-19 15 -68 0
68 -70 0
20 69 0
-16 69 0
-20 16 -69 0
69 -70 0
-66 -67 -68 -69 70 0
4 -36 0
17 -36 0
-4 -17 36 0
-36 52 0
8 -40 0
18 -40 0
-8 -18 40 0
-40 52 0
12 -44 0
19 -44 0
-12 -19 44 0
-44 52 0
16 -48 0
20 -48 0
-16 -20 48 0
-48 52 0
36 40 44 48 -52 0
-70 -52 71 0
70 52 71 0
-52 52 71 0
-71 -72 0
17 60 0
-9 60 0
-17 9 -60 0
60 -64 0
18 61 0
-10 61 0
-18 10 -61 0
61 -64 0
19 62 0
-11 62 0
-19 11 -62 0
62 -64 0
20 63 0
-12 63 0
-20 12 -63 0
63 -64 0
-60 -61 -62 -63 64 0
3 -35 0
17 -35 0
-3 -17 35 0
-35 51 0
7 -39 0
18 -39 0
-7 -18 39 0
-39 51 0
11 -43 0
19 -43 0
-11 -19 43 0
-43 51 0
15 -47 0
20 -47 0
-15 -20 47 0
-47 51 0
35 39 43 47 -51 0
-64 -51 65 0
64 51 65 0
-51 51 65 0
-65 -72 0
17 54 0
-5 54 0
-17 5 -54 0
54 -58 0
18 55 0
-6 55 0
-18 6 -55 0
55 -58 0
19 56 0
-7 56 0
-19 7 -56 0
56 -58 0
20 57 0
-8 57 0
-20 8 -57 0
57 -58 0
-54 -55 -56 -57 58 0
2 -34 0
17 -34 0
-2 -17 34 0
-34 50 0
6 -38 0
18 -38 0
-6 -18 38 0
-38 50 0
10 -42 0
19 -42 0
-10 -19 42 0
-42 50 0
14 -46 0
20 -46 0
-14 -20 46 0
-46 50 0
34 38 42 46 -50 0
-58 -50 59 0
58 50 59 0
-50 50 59 0
-59 -72 0
17 28 0
-1 28 0
-17 1 -28 0
28 -32 0
18 29 0
-2 29 0
-18 2 -29 0
29 -32 0
19 30 0
-3 30 0
-19 3 -30 0
30 -32 0
20 31 0
-4 31 0
-20 4 -31 0
31 -32 0
-28 -29 -30 -31 32 0
1 -33 0
17 -33 0
-1 -17 33 0
-33 49 0
5 -37 0
18 -37 0
-5 -18 37 0
-37 49 0
9 -41 0
19 -41 0
-9 -19 41 0
-41 49 0
13 -45 0
20 -45 0
-13 -20 45 0
-45 49 0
33 37 41 45 -49 0
-32 -49 53 0
32 49 53 0
-49 49 53 0
-53 -72 0
72 -73 0
-17 18 -74 0
74 -100 0
-17 -18 75 0
17 18 75 0
-18 18 75 0
-1 6 -76 0
-75 76 -77 0
77 -100 0
-1 -6 78 0
1 6 78 0
-6 6 78 0
-75 -78 79 0
-2 5 -80 0
-79 80 -81 0
81 -100 0
-2 -5 82 0
2 5 82 0
-5 5 82 0
-79 -82 83 0
-3 7 -84 0
-83 84 -85 0
85 -100 0
-3 -7 86 0
3 7 86 0
-7 7 86 0
-83 -86 87 0
-4 8 -88 0
-87 88 -89 0
89 -100 0
-4 -8 90 0
4 8 90 0
-8 8 90 0
-87 -90 91 0
-9 10 -92 0
-91 92 -93 0
93 -100 0
-9 -10 94 0
9 10 94 0
-10 10 94 0
-91 -94 95 0
-13 14 -96 0
-95 96 -97 0
97 -100 0
100 -155 0
-18 19 -101 0
101 -127 0
-18 -19 102 0
18 19 102 0
-19 19 102 0
-2 3 -103 0
-102 103 -104 0
104 -127 0
-2 -3 105 0
2 3 105 0
-3 3 105 0
-102 -105 106 0
-5 9 -107 0
-106 107 -108 0
108 -127 0
-5 -9 109 0
5 9 109 0
-9 9 109 0
-106 -109 110 0
-6 11 -111 0
-110 111 -112 0
112 -127 0
-6 -11 113 0
6 11 113 0
-11 11 113 0
-110 -113 114 0
-7 10 -115 0
-114 115 -116 0
116 -127 0
-7 -10 117 0
7 10 117 0
-10 10 117 0
-114 -117 118 0
-8 12 -119 0
-118 119 -120 0
120 -127 0
-8 -12 121 0
8 12 121 0
-12 12 121 0
-118 -121 122 0
-14 15 -123 0
-122 123 -124 0
124 -127 0
127 -155 0
-19 20 -128 0
128 -154 0
-19 -20 129 0
19 20 129 0
-20 20 129 0
-3 4 -130 0
-129 130 -131 0
131 -154 0
-3 -4 132 0
3 4 132 0
-4 4 132 0
-129 -132 133 0
-7 8 -134 0
-133 134 -135 0
135 -154 0
-7 -8 136 0
7 8 136 0
-8 8 136 0
-133 -136 137 0
-9 13 -138 0
-137 138 -139 0
139 -154 0
-9 -13 140 0
9 13 140 0
-13 13 140 0
-137 -140 141 0
-10 14 -142 0
-141 142 -143 0
143 -154 0
-10 -14 144 0
10 14 144 0
-14 14 144 0
-141 -144 145 0
-11 16 -146 0
-145 146 -147 0
147 -154 0
-11 -16 148 0
11 16 148 0
-16 16 148 0
-145 -148 149 0
-12 15 -150 0
-149 150 -151 0
151 -154 0
154 -155 0
73 0
155 0
